&GLOBAL
  PRINT_LEVEL LOW
  PROJECT GROMACS
  RUN_TYPE ENERGY_FORCE
&END GLOBAL
&FORCE_EVAL
  METHOD QMMM
  &DFT
    CHARGE -1
    MULTIPLICITY 1
    BASIS_SET_FILE_NAME  BASIS_MOLOPT
    POTENTIAL_FILE_NAME  POTENTIAL
    &MGRID
      NGRIDS 5
      CUTOFF 450
      REL_CUTOFF 50
      COMMENSURATE
    &END MGRID
    &SCF
      SCF_GUESS RESTART
      EPS_SCF 5.0E-8
      MAX_SCF 20
      &OT  T
        MINIMIZER  DIIS
        STEPSIZE   0.15
        PRECONDITIONER FULL_ALL
      &END OT
      &OUTER_SCF  T
        MAX_SCF 20
        EPS_SCF 5.0E-8
      &END OUTER_SCF
    &END SCF
    &XC
      DENSITY_CUTOFF     1.0E-12
      GRADIENT_CUTOFF    1.0E-12
      TAU_CUTOFF         1.0E-12
      &XC_FUNCTIONAL PBE
      &END XC_FUNCTIONAL
    &END XC
    &QS
     METHOD GPW
     EPS_DEFAULT 1.0E-10
     EXTRAPOLATION ASPC
     EXTRAPOLATION_ORDER  4
    &END QS
  &END DFT
  &PROPERTIES
    &TDDFPT
       NSTATES      5
       MAX_ITER    10
       CONVERGENCE [eV] 1.0e-3
    &END TDDFPT
  &END PROPERTIES
  &QMMM
    &CELL
      A 15.620 0.000 0.000
      B 0.000 10.000 0.000
      C 0.000 0.000 11.620
      PERIODIC XYZ
    &END CELL
    CENTER EVERY_STEP
    CENTER_TYPE PBC_AWARE_MAX_MINUS_MIN
    ECOUPL GAUSS
    USE_GEEP_LIB 12
    &PERIODIC
      GMAX     1.0E+00
      &MULTIPOLE ON
         RCUT     1.0E+01
         EWALD_PRECISION     1.0E-06
      &END
    &END PERIODIC
    &QM_KIND H  
      MM_INDEX 944 947 949 951 953
    &END QM_KIND
    &QM_KIND C  
      MM_INDEX 938 940 941 943 945 946 948 950 952 954
    &END QM_KIND
    &QM_KIND N  
      MM_INDEX 939 956
    &END QM_KIND
    &QM_KIND O  
      MM_INDEX 942 955
    &END QM_KIND
    &LINK
      QM_INDEX 938
      MM_INDEX 936
    &END LINK
    &LINK
      QM_INDEX 956
      MM_INDEX 957
    &END LINK
  &END QMMM
  &MM
    &FORCEFIELD
      DO_NONBONDED FALSE
    &END FORCEFIELD
    &POISSON
      &EWALD
        EWALD_TYPE NONE
      &END EWALD
    &END POISSON
  &END MM
  &SUBSYS
    &CELL
      A 80.235 0.000 0.000
      B 0.000 80.235 0.000
      C 0.000 0.000 80.235
      PERIODIC XYZ
    &END CELL
    &TOPOLOGY
      COORD_FILE_NAME egfp-spec.pdb
      COORD_FILE_FORMAT PDB
      CHARGE_EXTENDED TRUE
      CONNECTIVITY OFF
      &GENERATE
         &ISOLATED_ATOMS
            LIST 1..51739
         &END
      &END GENERATE
    &END TOPOLOGY
    &KIND H  
      ELEMENT H  
      BASIS_SET DZVP-MOLOPT-GTH
      POTENTIAL GTH-PBE
    &END KIND
    &KIND C  
      ELEMENT C  
      BASIS_SET DZVP-MOLOPT-GTH
      POTENTIAL GTH-PBE
    &END KIND
    &KIND N  
      ELEMENT N  
      BASIS_SET DZVP-MOLOPT-GTH
      POTENTIAL GTH-PBE
    &END KIND
    &KIND O  
      ELEMENT O  
      BASIS_SET DZVP-MOLOPT-GTH
      POTENTIAL GTH-PBE
    &END KIND
    &KIND X
      ELEMENT H
    &END KIND
  &END SUBSYS
&END FORCE_EVAL
